001 003 004 005 007 007 008 006 009 005 003 004 004 006 005 010 009 012 012 006 012 015 020 015 018 017 025 025 017 029 021
001 002 005 002 006 007 010 005 004 003 002 004 003 004 003 006 013 010 012 010 011 013 018 015 018 022 020 021 013 024 031
001 002 002 002 002 002 003 003 003 003 003 004 004 004 004 006 011 009 015 009 013 014 018 017 017 017 015 026 018 021 028
001 001 002 002 000 001 001 000 002 002 003 004 004 005 005 006 006 008 011 011 016 021 017 012 009 007 012 017 016 031 026
001 001 000 001 000 000 000 000 002 001 002 005 004 004 004 007 013 013 010 008 007 011 015 007 008 006 010 009 013 015 013
000 000 001 001 000 000 000 001 002 002 002 004 005 007 005 023 024 019 013 006 007 006 010 004 004 005 -99 008 012 011 010
000 001 001 001 000 000 000 002 003 003 004 005 004 011 009 027 036 011 012 007 005 005 003 005 003 003 -99 -99 010 006 006
001 001 001 001 -99 -99 -99 001 003 004 006 012 006 013 033 055 029 021 015 009 008 005 006 005 003 002 001 -99 -99 006 005
001 001 001 001 001 -99 -99 003 003 005 008 008 007 017 031 035 023 021 010 011 010 007 006 003 002 002 001 002 004 004 004
001 001 001 001 001 001 -99 003 003 003 011 012 013 013 022 019 020 021 014 011 010 007 006 005 001 002 001 001 003 003 003
001 002 001 001 001 003 002 002 002 002 004 010 020 012 012 013 018 025 014 008 006 007 007 005 003 001 001 001 002 002 003
001 003 002 001 001 002 001 001 001 002 004 006 010 012 008 008 014 026 014 009 004 007 006 006 003 002 001 001 003 002 003
001 002 006 006 002 001 001 001 001 002 004 006 011 016 011 010 006 013 011 004 004 004 006 004 003 002 000 000 001 001 002
001 002 005 009 002 002 002 001 001 001 002 003 009 012 005 003 003 007 008 006 005 002 005 001 001 000 000 000 000 001 002
002 001 003 004 004 002 004 003 002 002 002 002 005 008 004 001 001 003 003 006 006 001 003 001 000 000 000 000 000 000 001
003 003 002 005 007 005 003 001 002 001 002 001 003 006 003 001 001 002 002 006 006 001 -99 001 000 000 000 000 000 002 002
001 002 002 007 015 005 002 001 002 001 002 001 001 002 001 000 000 001 001 003 003 001 000 000 000 000 000 000 000 002 002
000 002 001 002 004 008 001 000 000 002 001 001 000 001 001 000 000 000 001 003 001 001 002 000 000 000 000 000 001 002 003
000 001 002 001 003 009 001 000 000 004 001 000 000 000 000 000 000 000 001 002 001 002 002 000 000 000 000 000 -99 002 003
000 002 003 001 001 002 000 000 000 002 000 000 000 000 000 000 001 002 004 005 003 001 003 -99 -99 001 000 -99 -99 002 002
000 000 000 000 000 000 -99 000 000 002 000 000 000 001 000 000 001 003 003 003 003 001 003 -99 -99 003 002 -99 -99 002 002
000 000 000 000 000 000 000 000 000 002 000 000 000 001 000 001 003 004 004 003 004 001 002 -99 006 006 003 -99 -99 002 004
000 000 000 000 000 000 000 000 000 001 000 000 001 001 000 002 005 006 004 003 002 002 004 -99 006 011 007 -99 -99 008 008
000 000 000 000 000 000 000 000 000 000 000 000 001 001 001 004 010 008 007 005 003 007 009 -99 -99 012 010 -99 -99 009 012
000 000 000 000 000 000 000 000 000 000 000 001 001 002 001 003 011 015 025 010 013 037 021 013 -99 011 010 -99 -99 009 013
000 000 000 000 000 000 000 000 000 000 002 000 002 002 002 003 014 016 032 021 022 028 024 013 -99 -99 -99 -99 -99 009 006
000 000 000 000 000 000 000 000 000 000 005 003 003 002 004 002 006 008 020 026 021 011 015 -99 -99 -99 -99 -99 -99 003 003
000 000 000 000 000 000 000 000 000 002 004 003 002 005 003 003 003 006 013 014 013 006 011 005 -99 -99 -99 -99 -99 003 002
000 000 000 000 000 000 000 000 000 002 003 003 003 006 006 003 001 003 005 007 007 004 013 007 009 008 004 -99 -99 002 002
000 000 000 000 000 000 000 000 000 001 002 004 009 010 011 003 002 002 003 005 004 002 014 014 010 009 008 005 004 -99 001
000 000 000 001 000 000 000 000 000 000 000 003 008 008 007 004 003 002 003 004 003 002 005 013 010 010 010 005 004 -99 003
001 000 001 001 000 002 001 000 000 000 001 001 003 005 006 012 006 004 003 003 002 001 005 013 013 012 008 009 005 009 004
001 001 001 000 001 003 001 001 001 003 001 000 001 003 006 009 009 004 003 003 002 001 003 007 013 015 017 021 018 006 005
001 001 001 000 003 002 001 001 003 003 001 001 001 003 008 005 005 003 002 001 001 001 001 003 010 020 017 029 022 010 007
001 001 000 000 001 001 000 000 000 002 002 002 002 001 002 002 000 001 001 000 000 000 000 002 008 010 015 033 028 020 010
001 001 000 000 000 001 000 000 000 002 003 002 001 000 001 000 000 001 001 000 000 000 000 001 002 006 014 029 016 012 026
001 000 000 000 000 000 000 001 001 001 002 001 001 000 000 000 000 001 000 000 000 000 001 001 001 002 007 017 010 010 015
000 000 000 001 001 000 001 001 000 000 000 000 001 001 000 000 000 001 001 003 001 001 003 002 000 000 003 005 004 006 023
002 001 001 002 001 001 000 001 001 000 000 000 000 000 001 001 003 004 008 007 004 002 005 002 000 000 001 002 001 004 039
002 001 002 001 000 001 000 001 002 001 000 000 000 002 002 005 007 008 012 010 009 003 003 000 001 000 001 002 000 009 046
002 001 001 000 000 000 000 001 002 000 000 000 002 005 007 007 015 008 006 006 005 003 001 000 001 000 001 001 000 013 042
002 000 000 000 000 000 000 002 003 001 000 001 004 007 012 010 006 003 003 003 003 001 000 000 000 000 000 000 000 015 026
000 001 001 000 000 000 001 003 003 002 001 003 005 008 015 009 004 003 001 004 001 000 000 000 000 000 000 000 000 005 020
001 001 001 000 000 000 000 001 001 002 000 003 007 010 015 011 003 002 002 003 002 000 000 000 000 000 000 000 000 004 029
000 000 001 000 000 000 000 000 000 000 001 003 005 005 015 009 005 002 002 001 001 000 000 000 000 000 000 000 000 003 024
000 000 000 000 000 000 000 000 000 000 001 001 003 004 009 013 004 002 003 002 001 000 000 000 000 000 000 000 -99 006 017
000 000 000 000 000 000 000 000 000 000 000 001 002 003 009 009 003 003 002 001 001 000 000 000 000 000 000 -99 003 005 011
000 000 000 000 000 000 000 -99 000 000 000 000 001 002 003 002 001 003 001 001 001 001 000 000 000 000 -99 -99 001 005 009
000 000 000 000 000 000 -99 -99 000 000 000 000 002 001 000 001 002 003 003 002 002 002 008 001 000 000 000 000 000 005 013
000 000 000 000 000 -99 -99 -99 -99 000 000 000 001 001 000 000 002 003 004 003 003 004 015 002 000 000 000 000 000 002 007
000 000 000 000 000 000 -99 000 000 000 000 000 002 001 000 001 001 002 002 002 003 013 008 001 000 000 000 000 000 002 001
000 000 000 000 000 000 000 000 000 000 000 001 003 001 002 002 001 002 002 003 002 001 001 000 000 000 -99 -99 001 001 000
001 000 001 000 000 000 000 000 000 000 000 000 001 002 004 002 001 002 002 002 001 000 000 000 000 -99 -99 -99 -99 000 000
001 001 001 002 000 000 000 000 000 000 000 000 001 002 005 002 000 001 001 000 000 000 000 -99 -99 -99 -99 -99 -99 -99 -99
000 001 000 000 001 001 000 000 000 000 001 003 007 005 003 001 000 000 000 000 000 000 -99 -99 -99 -99 -99 -99 -99 -99 -99
